projet_m2_wvcp/projet_m2_wvcp/reduced_wvcp_dzn/miles1000.clq.dzn
cliques=[{0,1,6,8,9,10,14,15,16,17,19,25,27,30,32,34,37,42,43,48,50,54,58,59,61,66,71,74,79,80,81,88,90,91},{0,1,6,8,9,10,14,16,17,19,21,25,26,27,30,34,36,39,43,42,48,50,58,59,61,66,71,74,79,88,90,91},{2,5,8,9,12,14,15,25,31,33,38,43,42,44,50,51,54,55,57,58,59,63,64,68,69,72,79,80,81,82,83,85,86,90,92},{3,5,7,8,9,11,12,13,14,15,19,22,25,28,33,38,40,42,44,49,52,54,56,58,59,60,63,64,65,67,68,72,73,79,80,81,82,84,85,86,87,92},{1,4,10,21,26,27,29,30,35,39,41,46,47,48,61,62,70,75,76,78,89},{3,5,7,8,9,11,14,15,19,22,25,28,32,33,37,38,42,44,49,52,54,56,58,59,60,63,64,65,67,68,71,72,73,79,80,81,82,85,87,90},{0,1,6,8,9,10,14,15,16,17,19,25,26,27,30,31,32,34,42,43,48,50,58,59,61,66,71,74,79,80,81,88,90,91},{3,5,7,8,9,11,12,13,14,15,19,22,25,28,33,38,40,42,44,49,52,54,56,58,59,60,63,64,65,67,68,72,73,79,80,81,82,84,85,86,87,92},{3,5,7,8,9,11,14,15,19,22,25,28,32,33,37,38,42,44,49,52,54,56,58,59,60,63,64,65,67,68,71,72,73,79,80,81,82,85,87,90},{3,5,7,8,9,11,14,15,19,22,25,28,32,33,37,38,42,44,49,52,54,56,58,59,60,63,64,65,67,68,71,72,73,79,80,81,82,85,87,90},{0,1,6,8,9,10,14,16,17,19,21,25,26,27,30,34,36,39,43,42,48,50,58,59,61,66,71,74,79,88,90,91},{3,5,7,8,9,11,14,15,19,22,25,28,32,33,37,38,42,44,49,52,54,56,58,59,60,63,64,65,67,68,71,72,73,79,80,81,82,85,87,90},{3,5,7,8,9,12,11,13,14,15,19,22,25,28,33,38,40,42,44,49,52,54,56,58,59,60,63,64,65,67,68,72,73,79,80,81,82,85,86,87,90,92},{3,5,7,8,9,12,11,13,14,15,19,22,25,28,33,38,40,42,44,49,52,54,56,58,59,60,63,64,65,67,68,72,73,79,80,81,82,85,86,87,90,92},{3,5,7,8,9,11,14,15,19,22,25,28,32,33,37,38,42,44,49,52,54,56,58,59,60,63,64,65,67,68,71,72,73,79,80,81,82,85,87,90},{3,5,7,8,9,11,14,15,19,22,25,28,32,33,37,38,42,44,49,52,54,56,58,59,60,63,64,65,67,68,71,72,73,79,80,81,82,85,87,90},{0,1,6,8,9,10,14,15,16,17,19,25,27,30,32,34,37,43,42,48,50,54,58,59,61,66,71,74,79,80,81,88,90,91},{0,1,6,8,9,10,14,15,16,17,19,25,27,30,32,34,37,42,43,48,50,54,58,59,61,66,71,74,79,80,81,88,90,91},{0,1,6,10,16,17,18,26,27,34,36,45,53,61,66,74,76,88,91},{3,5,7,8,9,11,14,15,19,22,25,28,32,33,37,38,42,44,49,52,54,56,58,59,60,63,64,65,67,68,71,72,73,79,80,81,82,85,87,90},{0,1,5,8,9,10,14,15,16,17,19,20,25,26,30,31,39,43,42,48,50,55,58,59,71,74,79,80,81,90},{0,1,6,8,9,10,14,16,17,19,21,25,26,27,30,34,36,39,43,42,48,50,58,59,61,66,71,74,79,88,90,91},{3,5,7,8,9,11,12,13,14,15,19,22,25,28,33,38,40,42,44,49,52,54,56,58,59,60,63,64,65,67,68,72,73,79,80,81,82,84,85,86,87,92},{1,10,16,21,23,26,27,34,36,45,47,53,61,76,91},{1,10,21,23,24,26,27,29,41,45,47,61,76},{3,5,7,8,9,11,14,15,19,22,25,28,32,33,37,38,42,44,49,52,54,56,58,59,60,63,64,65,67,68,71,72,73,79,80,81,82,85,87,90},{0,1,6,8,9,10,14,16,17,19,21,25,26,27,30,34,36,39,43,42,48,50,58,59,61,66,71,74,79,88,90,91},{0,1,6,8,9,10,14,16,17,19,21,25,26,27,30,34,36,39,43,42,48,50,58,59,61,66,71,74,79,88,90,91},{3,5,7,8,9,11,14,15,19,22,25,28,32,33,37,38,42,44,49,52,54,56,58,59,60,63,64,65,67,68,71,72,73,79,80,81,82,85,87,90},{1,4,10,21,26,27,29,30,35,39,41,46,47,48,61,62,70,75,76,78,89},{0,1,6,8,9,10,14,15,16,17,19,25,27,30,32,34,37,43,42,48,50,54,58,59,61,66,71,74,79,80,81,88,90,91},{0,1,6,8,9,10,14,15,16,17,19,25,27,30,31,32,34,43,42,48,50,54,58,59,61,66,71,74,79,80,81,88,90,91},{3,5,7,8,9,11,14,15,19,22,25,28,32,33,37,38,42,44,49,52,54,56,58,59,60,63,64,65,67,68,71,72,73,79,80,81,82,85,87,90},{3,5,7,8,9,11,14,15,19,22,25,28,32,33,37,38,42,44,49,52,54,56,58,59,60,63,64,65,67,68,71,72,73,79,80,81,82,85,87,90},{0,1,6,8,9,10,14,15,16,17,19,25,26,27,30,31,32,34,42,43,48,50,58,59,61,66,71,74,79,80,81,88,90,91},{0,1,5,8,9,10,14,16,20,26,30,31,35,39,43,42,48,50,55,58,59,69,70,71,90},{0,1,6,8,9,10,14,16,17,19,21,25,26,27,30,34,36,39,42,43,48,50,58,59,61,66,71,74,79,88,90,91},{3,5,7,8,9,11,14,15,19,22,25,28,32,33,37,38,42,44,49,52,54,56,58,59,60,63,64,65,67,68,71,72,73,79,80,81,82,85,87,90},{3,5,7,8,9,11,14,15,19,22,25,28,32,33,37,38,42,44,49,52,54,56,58,59,60,63,64,65,67,68,71,72,73,79,80,81,82,85,87,90},{0,1,6,8,9,10,14,16,17,19,21,25,26,27,30,34,36,39,43,42,48,50,58,59,61,66,71,74,79,88,90,91},{3,5,7,8,9,11,12,13,14,15,19,22,25,28,33,38,40,42,44,49,52,54,56,58,59,60,63,64,65,67,68,72,73,79,80,81,82,84,85,86,87,92},{1,4,10,21,26,27,29,30,35,39,41,46,47,48,61,62,70,75,76,78,89},{3,5,7,8,9,11,14,15,19,22,25,28,32,33,37,38,42,44,49,52,54,56,58,59,60,63,64,65,67,68,71,72,73,79,80,81,82,85,87,90},{0,1,6,8,9,10,14,15,16,17,19,25,27,30,32,34,37,43,42,48,50,54,58,59,61,66,71,74,79,80,81,88,90,91},{3,5,7,8,9,11,14,15,19,22,25,28,32,33,37,38,42,44,49,52,54,56,58,59,60,63,64,65,67,68,71,72,73,79,80,81,82,85,87,90},{0,1,6,10,16,17,21,26,27,30,34,36,39,43,42,45,48,50,53,61,71,74,75,76,88,91},{1,6,10,16,21,26,27,30,34,36,39,43,46,45,48,50,61,71,75,76,88,89,91},{1,10,16,21,26,27,30,34,36,39,43,45,46,47,48,50,61,75,76,89,91},{0,1,6,8,9,10,14,15,16,17,19,25,26,27,30,31,32,34,43,42,48,50,58,59,61,66,71,74,79,80,81,88,90,91},{3,5,7,8,9,11,14,15,19,22,25,28,32,33,37,38,42,44,49,52,54,56,58,59,60,63,64,65,67,68,71,72,73,79,80,81,82,85,87,90},{0,1,6,8,9,10,14,15,16,17,19,25,27,30,32,34,37,43,42,48,50,54,58,59,61,66,71,74,79,80,81,88,90,91},{5,7,8,9,12,13,14,15,22,25,28,33,38,40,42,44,49,51,52,54,56,58,59,60,63,64,65,68,72,73,79,80,81,82,85,86,87,90,92},{3,5,7,8,9,11,14,15,19,22,25,28,32,33,37,38,42,44,49,52,54,56,58,59,60,63,64,65,67,68,71,72,73,79,80,81,82,85,87,90},{0,1,6,8,10,14,16,17,19,21,25,26,27,30,34,36,39,42,43,48,50,53,58,59,61,66,71,74,88,90,91},{3,5,7,8,9,11,14,15,19,22,25,28,32,33,37,38,42,44,49,52,54,56,58,59,60,63,64,65,67,68,71,72,73,79,80,81,82,85,87,90},{0,1,5,8,9,10,14,15,16,17,19,25,30,31,32,34,43,42,48,50,54,55,58,59,71,72,74,79,80,81,90},{3,5,7,8,9,11,14,15,19,22,25,28,32,33,37,38,42,44,49,52,54,56,58,59,60,63,64,65,67,68,71,72,73,79,80,81,82,85,87,90},{2,5,8,9,12,14,15,25,31,33,38,43,42,44,50,51,54,55,57,58,59,63,64,68,69,72,79,80,81,82,83,85,86,90,92},{3,5,7,8,9,11,14,15,19,22,25,28,32,33,37,38,42,44,49,52,54,56,58,59,60,63,64,65,67,68,71,72,73,79,80,81,82,85,87,90},{3,5,7,8,9,11,14,15,19,22,25,28,32,33,37,38,42,44,49,52,54,56,58,59,60,63,64,65,67,68,71,72,73,79,80,81,82,85,87,90},{3,5,7,8,9,11,14,15,19,22,25,28,32,33,37,38,42,44,49,52,54,56,58,59,60,63,64,65,67,68,71,72,73,79,80,81,82,85,87,90},{0,1,6,8,9,10,14,16,17,19,21,25,26,27,30,34,36,39,43,42,48,50,58,59,61,66,71,74,79,88,90,91},{1,10,16,20,21,26,27,30,31,35,39,43,46,48,50,58,61,62,70,75,78,89,90},{3,5,7,8,9,11,14,15,19,22,25,28,32,33,37,38,42,44,49,52,54,56,58,59,60,63,64,65,67,68,71,72,73,79,80,81,82,85,87,90},{3,5,7,8,9,11,14,15,19,22,25,28,32,33,37,38,42,44,49,52,54,56,58,59,60,63,64,65,67,68,71,72,73,79,80,81,82,85,87,90},{3,5,7,8,9,11,14,15,19,22,25,28,32,33,37,38,42,44,49,52,54,56,58,59,60,63,64,65,67,68,71,72,73,79,80,81,82,85,87,90},{0,1,6,8,9,10,14,15,16,17,19,25,26,27,30,31,32,34,42,43,48,50,58,59,61,66,71,74,79,80,81,88,90,91},{3,5,7,8,9,11,14,15,19,22,25,28,32,33,37,38,42,44,49,52,54,56,58,59,60,63,64,65,67,68,71,72,73,79,80,81,82,85,87,90},{3,5,7,8,9,11,14,15,19,22,25,28,32,33,37,38,42,44,49,52,54,56,58,59,60,63,64,65,67,68,71,72,73,79,80,81,82,85,87,90},{2,5,8,9,12,14,15,25,31,33,38,43,42,44,50,51,54,55,58,59,60,63,64,68,69,72,79,80,81,82,83,85,86,90,92},{0,1,5,8,9,10,14,16,20,25,26,30,31,39,43,42,48,50,55,58,59,69,70,71,79,90},{3,5,7,8,9,11,14,15,19,22,25,28,32,33,37,38,42,44,49,52,54,56,58,59,60,63,64,65,67,68,71,72,73,79,80,81,82,85,87,90},{3,5,7,8,9,11,14,15,19,22,25,28,32,33,37,38,42,44,49,52,54,56,58,59,60,63,64,65,67,68,71,72,73,79,80,81,82,85,87,90},{3,5,7,8,9,11,14,15,19,22,25,28,32,33,37,38,42,44,49,52,54,56,58,59,60,63,64,65,67,68,71,72,73,79,80,81,82,85,87,90},{0,1,6,8,9,10,14,15,16,17,19,25,27,30,32,34,37,42,43,48,50,54,58,59,61,66,71,74,79,80,81,88,90,91},{0,1,6,8,9,10,14,16,17,21,25,26,27,30,34,36,39,43,42,48,50,58,59,61,71,74,75,88,90,91},{0,1,6,10,14,16,17,21,26,27,30,34,36,39,43,42,48,50,53,58,59,61,71,74,75,76,88,90,91},{2,5,8,9,12,14,15,25,31,33,38,43,44,50,51,55,57,58,59,63,64,68,69,72,77,79,80,81,83,85,86,90,92},{1,8,10,14,16,20,21,26,27,30,31,35,39,43,42,48,50,58,61,70,71,75,78,89,90},{3,5,7,8,9,11,14,15,19,22,25,28,32,33,37,38,42,44,49,52,54,56,58,59,60,63,64,65,67,68,71,72,73,79,80,81,82,85,87,90},{3,5,7,8,9,11,14,15,19,22,25,28,32,33,37,38,42,44,49,52,54,56,58,59,60,63,64,65,67,68,71,72,73,79,80,81,82,85,87,90},{3,5,7,8,9,11,14,15,19,22,25,28,32,33,37,38,42,44,49,52,54,56,58,59,60,63,64,65,67,68,71,72,73,79,80,81,82,85,87,90},{3,5,7,8,9,11,14,15,19,22,25,28,32,33,37,38,42,44,49,52,54,56,58,59,60,63,64,65,67,68,71,72,73,79,80,81,82,85,87,90},{5,7,8,9,12,13,14,15,19,25,28,33,38,40,42,44,49,52,54,56,58,59,60,63,64,65,68,72,73,79,80,81,82,83,85,86,87,90,92},{3,5,7,8,9,11,12,13,14,15,19,22,25,28,33,38,40,42,44,49,52,54,56,58,59,60,63,64,65,67,68,72,73,79,80,81,82,84,85,86,87,92},{3,5,7,8,9,11,14,15,19,22,25,28,32,33,37,38,42,44,49,52,54,56,58,59,60,63,64,65,67,68,71,72,73,79,80,81,82,85,87,90},{3,5,7,8,9,12,11,13,14,15,19,22,25,28,33,38,40,42,44,49,52,54,56,58,59,60,63,64,65,67,68,72,73,79,80,81,82,85,86,87,90,92},{3,5,7,8,9,11,14,15,19,22,25,28,32,33,37,38,42,44,49,52,54,56,58,59,60,63,64,65,67,68,71,72,73,79,80,81,82,85,87,90},{0,1,6,8,9,10,14,15,16,17,19,25,26,27,30,31,32,34,42,43,48,50,58,59,61,66,71,74,79,80,81,88,90,91},{0,1,6,8,9,10,14,16,21,26,27,30,34,36,39,43,42,48,50,58,59,61,71,75,88,89,90,91},{3,5,7,8,9,11,14,15,19,22,25,28,32,33,37,38,42,44,49,52,54,56,58,59,60,63,64,65,67,68,71,72,73,79,80,81,82,85,87,90},{0,1,6,8,9,10,14,15,16,17,19,25,26,27,30,31,32,34,42,43,48,50,58,59,61,66,71,74,79,80,81,88,90,91},{3,5,7,8,9,12,11,13,14,15,19,22,25,28,33,38,40,42,44,49,52,54,56,58,59,60,63,64,65,67,68,72,73,79,80,81,82,85,86,87,90,92}];
nr_cliques=93;
