projet_m2_wvcp/projet_m2_wvcp/reduced_wvcp_dzn/miles1000.dzn
name="miles1000";
nr_vertices=93;
nr_edges=2622;
neighborhoods=[{1,5,6,8,9,10,11,14,15,16,17,18,19,20,21,25,26,27,28,30,31,32,33,34,35,36,37,38,39,42,43,44,45,48,49,50,52,53,54,55,56,58,59,60,61,63,64,65,66,67,68,69,70,71,72,73,74,75,76,79,80,81,82,85,87,88,89,90,91},{0,4,5,6,8,9,10,14,15,16,17,18,19,20,21,23,24,25,26,27,29,30,31,32,34,35,36,37,39,41,42,43,45,46,47,48,50,53,54,55,58,59,61,62,66,69,70,71,72,74,75,76,78,79,80,81,88,89,90,91},{5,8,9,12,13,14,15,20,25,30,31,33,35,38,42,43,44,48,50,51,54,55,56,57,58,59,60,63,64,65,68,69,70,72,73,77,78,79,80,81,82,83,85,86,87,89,90,92},{5,7,8,9,11,12,13,14,15,19,22,25,28,32,33,37,38,40,42,44,49,52,54,56,58,59,60,63,64,65,67,68,71,72,73,79,80,81,82,84,85,86,87,90,92},{1,10,20,21,26,27,29,30,31,35,39,41,45,46,47,48,50,55,61,62,69,70,75,76,78,89},{0,1,2,3,7,8,9,10,11,12,13,14,15,16,17,19,20,22,25,26,28,30,31,32,33,34,35,37,38,39,40,42,43,44,48,49,50,51,52,54,55,56,57,58,59,60,63,64,65,66,67,68,69,70,71,72,73,74,77,79,80,81,82,83,84,85,86,87,88,90,92},{0,1,8,9,10,11,14,15,16,17,18,19,21,23,25,26,27,30,31,32,34,36,37,39,42,43,45,46,48,50,53,54,58,59,60,61,66,71,72,74,75,76,79,80,81,88,89,90,91},{3,5,8,9,11,12,13,14,15,19,22,25,28,32,33,37,38,40,42,44,49,51,52,54,56,58,59,60,63,64,65,67,68,71,72,73,79,80,81,82,83,84,85,86,87,90,92},{0,1,2,3,5,6,7,9,10,11,12,13,14,15,16,17,19,20,21,22,25,26,27,28,30,31,32,33,34,35,36,37,38,39,40,42,43,44,48,49,50,51,52,53,54,55,56,57,58,59,60,61,63,64,65,66,67,68,69,70,71,72,73,74,75,77,78,79,80,81,82,83,84,85,86,87,88,89,90,91,92},{0,1,2,3,5,6,7,8,10,11,12,13,14,15,16,17,19,20,21,22,25,26,27,28,30,31,32,33,34,35,36,37,38,39,40,42,43,44,48,49,50,51,52,54,55,56,57,58,59,60,61,63,64,65,66,67,68,69,70,71,72,73,74,75,77,79,80,81,82,83,84,85,86,87,88,89,90,91,92},{0,1,4,5,6,8,9,11,14,15,16,17,18,19,20,21,23,24,25,26,27,29,30,31,32,34,35,36,37,39,41,42,43,44,45,46,47,48,50,53,54,55,58,59,60,61,62,66,69,70,71,72,74,75,76,78,79,80,81,88,89,90,91},{0,3,5,6,7,8,9,10,12,13,14,15,16,17,19,22,25,28,30,32,33,34,37,38,40,42,43,44,48,49,50,52,54,56,58,59,60,63,64,65,66,67,68,71,72,73,74,79,80,81,82,84,85,86,87,88,90,92},{2,3,5,7,8,9,11,13,14,15,19,20,22,25,28,30,31,33,35,38,40,42,43,44,48,49,50,51,52,54,55,56,57,58,59,60,63,64,65,67,68,69,70,71,72,73,77,79,80,81,82,83,84,85,86,87,90,92},{2,3,5,7,8,9,11,12,14,15,19,22,25,28,32,33,38,40,42,43,44,49,50,51,52,54,55,56,57,58,59,60,63,64,65,67,68,69,71,72,73,77,79,80,81,82,83,84,85,86,87,90,92},{0,1,2,3,5,6,7,8,9,10,11,12,13,15,16,17,19,20,21,22,25,26,27,28,30,31,32,33,34,35,36,37,38,39,40,42,43,44,48,49,50,51,52,53,54,55,56,57,58,59,60,61,63,64,65,66,67,68,69,70,71,72,73,74,75,76,77,78,79,80,81,82,83,84,85,86,87,88,89,90,91,92},{0,1,2,3,5,6,7,8,9,10,11,12,13,14,16,17,19,20,22,25,26,27,28,30,31,32,33,34,37,38,39,40,42,43,44,48,49,50,51,52,54,55,56,57,58,59,60,61,63,64,65,66,67,68,69,71,72,73,74,77,79,80,81,82,83,84,85,86,87,88,90,91,92},{0,1,5,6,8,9,10,11,14,15,17,18,19,20,21,23,25,26,27,28,30,31,32,33,34,35,36,37,39,42,43,44,45,46,47,48,49,50,53,54,55,58,59,60,61,62,63,65,66,68,69,70,71,72,73,74,75,76,78,79,80,81,82,85,88,89,90,91},{0,1,5,6,8,9,10,11,14,15,16,18,19,20,21,25,26,27,28,30,31,32,33,34,36,37,39,42,43,44,45,48,49,50,52,53,54,55,58,59,60,61,63,64,65,66,67,68,70,71,72,73,74,75,76,79,80,81,82,85,87,88,90,91},{0,1,6,10,16,17,23,24,26,27,34,36,45,47,53,61,66,74,76,88,91},{0,1,3,5,6,7,8,9,10,11,12,13,14,15,16,17,20,21,22,25,26,27,28,30,31,32,33,34,36,37,38,39,40,42,43,44,48,49,50,52,53,54,55,56,58,59,60,61,63,64,65,66,67,68,69,71,72,73,74,79,80,81,82,83,84,85,86,87,88,90,91,92},{0,1,2,4,5,8,9,10,12,14,15,16,17,19,21,25,26,27,29,30,31,35,39,42,43,44,46,48,50,51,54,55,57,58,59,61,62,63,69,70,71,74,75,77,78,79,80,81,83,85,86,89,90,92},{0,1,4,6,8,9,10,14,16,17,19,20,23,24,25,26,27,29,30,31,34,35,36,39,41,42,43,45,46,47,48,50,53,55,58,59,61,62,66,69,70,71,74,75,76,78,79,88,89,90,91},{3,5,7,8,9,11,12,13,14,15,19,25,28,32,33,37,38,40,42,43,44,49,51,52,54,56,58,59,60,63,64,65,67,68,71,72,73,79,80,81,82,84,85,86,87,90,92},{1,6,10,16,18,21,24,26,27,29,34,36,41,45,47,53,61,76,88,91},{1,10,18,21,23,26,27,29,36,41,45,47,53,61,76,91},{0,1,2,3,5,6,7,8,9,10,11,12,13,14,15,16,17,19,20,21,22,26,27,28,30,31,32,33,34,36,37,38,39,40,42,43,44,48,49,50,51,52,53,54,55,56,57,58,59,60,61,63,64,65,66,67,68,69,70,71,72,73,74,75,77,79,80,81,82,83,84,85,86,87,88,90,91,92},{0,1,4,5,6,8,9,10,14,15,16,17,18,19,20,21,23,24,25,27,29,30,31,32,34,35,36,39,41,42,43,45,46,47,48,50,53,55,58,59,61,62,66,69,70,71,74,75,76,78,79,80,81,88,89,90,91},{0,1,4,6,8,9,10,14,15,16,17,18,19,20,21,23,24,25,26,29,30,31,32,34,35,36,37,39,41,42,43,45,46,47,48,50,53,54,58,59,61,62,66,70,71,74,75,76,78,79,80,81,88,89,90,91},{0,3,5,7,8,9,11,12,13,14,15,16,17,19,22,25,30,32,33,34,37,38,40,42,43,44,49,50,51,52,54,56,58,59,60,63,64,65,66,67,68,71,72,73,74,79,80,81,82,83,84,85,86,87,90,92},{1,4,10,20,21,23,24,26,27,30,35,39,41,45,46,47,48,61,62,70,75,76,78,89},{0,1,2,4,5,6,8,9,10,11,12,14,15,16,17,19,20,21,25,26,27,28,29,31,32,33,34,35,36,37,39,41,42,43,44,45,46,47,48,50,53,54,55,57,58,59,60,61,62,63,66,68,69,70,71,72,73,74,75,76,77,78,79,80,81,83,85,88,89,90,91},{0,1,2,4,5,6,8,9,10,12,14,15,16,17,19,20,21,25,26,27,30,32,33,34,35,38,39,42,43,44,46,48,50,51,54,55,57,58,59,60,61,62,63,64,66,68,69,70,71,72,73,74,75,77,78,79,80,81,82,83,85,86,88,89,90,91,92},{0,1,3,5,6,7,8,9,10,11,13,14,15,16,17,19,22,25,26,27,28,30,31,33,34,36,37,38,40,42,43,44,48,49,50,52,53,54,55,56,58,59,60,61,63,64,65,66,67,68,71,72,73,74,79,80,81,82,84,85,86,87,88,90,91},{0,2,3,5,7,8,9,11,12,13,14,15,16,17,19,22,25,28,30,31,32,37,38,40,42,43,44,49,50,51,52,54,55,56,57,58,59,60,63,64,65,67,68,69,71,72,73,74,77,79,80,81,82,83,84,85,86,87,90,92},{0,1,5,6,8,9,10,11,14,15,16,17,18,19,21,23,25,26,27,28,30,31,32,35,36,37,39,42,43,45,46,47,48,50,53,54,55,58,59,60,61,66,68,70,71,72,73,74,75,76,78,79,80,81,88,89,90,91},{0,1,2,4,5,8,9,10,12,14,16,20,21,26,27,29,30,31,34,39,41,42,43,46,47,48,50,51,55,57,58,59,61,62,63,69,70,71,75,76,77,78,83,89,90,91},{0,1,6,8,9,10,14,16,17,18,19,21,23,24,25,26,27,30,32,34,37,39,42,43,45,46,47,48,50,53,58,59,61,66,70,71,74,75,76,79,80,88,89,90,91},{0,1,3,5,6,7,8,9,10,11,14,15,16,17,19,22,25,27,28,30,32,33,34,36,38,42,43,44,48,49,50,52,53,54,56,58,59,60,61,63,64,65,66,67,68,71,72,73,74,79,80,81,82,85,87,88,90,91},{0,2,3,5,7,8,9,11,12,13,14,15,19,22,25,28,31,32,33,37,40,42,43,44,49,50,51,52,54,55,56,57,58,59,60,63,64,65,67,68,69,71,72,73,77,79,80,81,82,83,84,85,86,87,90,92},{0,1,4,5,6,8,9,10,14,15,16,17,19,20,21,25,26,27,29,30,31,34,35,36,41,42,43,45,46,47,48,50,53,55,58,59,61,62,66,69,70,71,74,75,76,77,78,79,80,81,88,89,90,91},{3,5,7,8,9,11,12,13,14,15,19,22,25,28,32,33,38,42,44,49,51,52,54,56,58,59,60,63,64,65,67,68,72,73,79,80,81,82,83,84,85,86,87,90,92},{1,4,10,21,23,24,26,27,29,30,35,39,45,46,47,48,61,62,70,75,76,78,89,91},{0,1,2,3,5,6,7,8,9,10,11,12,13,14,15,16,17,19,20,21,22,25,26,27,28,30,31,32,33,34,35,36,37,38,39,40,43,44,45,48,49,50,51,52,53,54,55,56,57,58,59,60,61,63,64,65,66,67,68,69,70,71,72,73,74,75,76,78,79,80,81,82,83,84,85,86,87,88,89,90,91,92},{0,1,2,5,6,8,9,10,11,12,13,14,15,16,17,19,20,21,22,25,26,27,28,30,31,32,33,34,35,36,37,38,39,42,44,45,46,47,48,49,50,51,52,53,54,55,56,57,58,59,60,61,62,63,64,65,66,67,68,69,70,71,72,73,74,75,76,77,78,79,80,81,82,83,85,86,87,88,89,90,91,92},{0,2,3,5,7,8,9,10,11,12,13,14,15,16,17,19,20,22,25,28,30,31,32,33,37,38,40,42,43,48,49,50,51,52,54,55,56,57,58,59,60,63,64,65,66,67,68,69,70,71,72,73,74,77,79,80,81,82,83,84,85,86,87,90,92},{0,1,4,6,10,16,17,18,21,23,24,26,27,29,30,34,36,39,41,42,43,46,47,48,50,53,61,62,66,71,74,75,76,88,89,91},{1,4,6,10,16,20,21,26,27,29,30,31,34,35,36,39,41,43,45,47,48,50,55,58,61,62,69,70,71,75,76,78,88,89,90,91},{1,4,10,16,18,21,23,24,26,27,29,30,34,35,36,39,41,43,45,46,48,50,53,61,62,70,75,76,78,89,91},{0,1,2,4,5,6,8,9,10,11,12,14,15,16,17,19,20,21,25,26,27,29,30,31,32,34,35,36,37,39,41,42,43,44,45,46,47,50,51,53,54,55,57,58,59,60,61,62,63,66,68,69,70,71,72,74,75,76,77,78,79,80,81,83,85,88,89,90,91},{0,3,5,7,8,9,11,12,13,14,15,16,17,19,22,25,28,32,33,37,38,40,42,43,44,50,51,52,54,56,58,59,60,63,64,65,67,68,71,72,73,74,79,80,81,82,83,84,85,86,87,90,92},{0,1,2,4,5,6,8,9,10,11,12,13,14,15,16,17,19,20,21,25,26,27,28,30,31,32,33,34,35,36,37,38,39,42,43,44,45,46,47,48,49,51,52,53,54,55,56,57,58,59,60,61,62,63,64,65,66,67,68,69,70,71,72,73,74,75,76,77,78,79,80,81,82,83,85,86,87,88,89,90,91,92},{2,5,7,8,9,12,13,14,15,20,22,25,28,31,33,35,38,40,42,43,44,48,49,50,52,54,55,56,57,58,59,60,63,64,65,68,69,70,72,73,77,78,79,80,81,82,83,85,86,87,90,92},{0,3,5,7,8,9,11,12,13,14,15,17,19,22,25,28,32,33,37,38,40,42,43,44,49,50,51,54,56,58,59,60,63,64,65,67,68,71,72,73,79,80,81,82,83,84,85,86,87,90,92},{0,1,6,8,10,14,16,17,18,19,21,23,24,25,26,27,30,32,34,36,37,39,42,43,45,47,48,50,58,59,61,66,71,74,75,76,88,90,91},{0,1,2,3,5,6,7,8,9,10,11,12,13,14,15,16,17,19,20,22,25,27,28,30,31,32,33,34,37,38,40,42,43,44,48,49,50,51,52,55,56,57,58,59,60,61,63,64,65,66,67,68,69,71,72,73,74,79,80,81,82,83,84,85,86,87,88,90,91,92},{0,1,2,4,5,8,9,10,12,13,14,15,16,17,19,20,21,25,26,30,31,32,33,34,35,38,39,42,43,44,46,48,50,51,54,56,57,58,59,60,62,63,64,68,69,70,71,72,73,74,75,77,78,79,80,81,82,83,85,86,89,90,92},{0,2,3,5,7,8,9,11,12,13,14,15,19,22,25,28,32,33,37,38,40,42,43,44,49,50,51,52,54,55,57,58,59,60,63,64,65,67,68,71,72,73,79,80,81,82,83,84,85,86,87,90,92},{2,5,8,9,12,13,14,15,20,25,30,31,33,35,38,42,43,44,48,50,51,54,55,56,58,59,62,63,64,68,69,70,72,73,77,78,79,80,81,82,83,85,86,87,89,90,92},{0,1,2,3,5,6,7,8,9,10,11,12,13,14,15,16,17,19,20,21,22,25,26,27,28,30,31,32,33,34,35,36,37,38,39,40,42,43,44,46,48,49,50,51,52,53,54,55,56,57,59,60,61,62,63,64,65,66,67,68,69,70,71,72,73,74,75,76,77,78,79,80,81,82,83,84,85,86,87,88,89,90,91,92},{0,1,2,3,5,6,7,8,9,10,11,12,13,14,15,16,17,19,20,21,22,25,26,27,28,30,31,32,33,34,35,36,37,38,39,40,42,43,44,48,49,50,51,52,53,54,55,56,57,58,60,61,63,64,65,66,67,68,69,70,71,72,73,74,75,76,77,79,80,81,82,83,84,85,86,87,88,89,90,91,92},{0,2,3,5,6,7,8,9,10,11,12,13,14,15,16,17,19,22,25,28,30,31,32,33,34,37,38,40,42,43,44,48,49,50,51,52,54,55,56,58,59,61,63,64,65,66,67,68,69,71,72,73,74,79,80,81,82,83,84,85,86,87,88,90,92},{0,1,4,6,8,9,10,14,15,16,17,18,19,20,21,23,24,25,26,27,29,30,31,32,34,35,36,37,39,41,42,43,45,46,47,48,50,53,54,58,59,60,62,66,70,71,72,74,75,76,78,79,80,81,88,89,90,91},{1,4,10,16,20,21,26,27,29,30,31,35,39,41,43,45,46,47,48,50,55,57,58,61,69,70,75,76,77,78,83,89,90,91},{0,2,3,5,7,8,9,11,12,13,14,15,16,17,19,20,22,25,28,30,31,32,33,35,37,38,40,42,43,44,48,49,50,51,52,54,55,56,57,58,59,60,64,65,67,68,69,70,71,72,73,77,79,80,81,82,83,84,85,86,87,90,92},{0,2,3,5,7,8,9,11,12,13,14,15,17,19,22,25,28,31,32,33,37,38,40,42,43,44,49,50,51,52,54,55,56,57,58,59,60,63,65,67,68,69,71,72,73,77,79,80,81,82,83,84,85,86,87,90,92},{0,2,3,5,7,8,9,11,12,13,14,15,16,17,19,22,25,28,32,33,37,38,40,42,43,44,49,50,51,52,54,56,58,59,60,63,64,67,68,71,72,73,79,80,81,82,83,84,85,86,87,90,92},{0,1,5,6,8,9,10,11,14,15,16,17,18,19,21,25,26,27,28,30,31,32,34,36,37,39,42,43,44,45,48,50,53,54,58,59,60,61,68,71,72,73,74,76,79,80,81,85,88,90,91},{0,3,5,7,8,9,11,12,13,14,15,17,19,22,25,28,32,33,37,38,40,42,43,44,49,50,52,54,56,58,59,60,63,64,65,68,71,72,73,79,80,81,82,84,85,86,87,90,92},{0,2,3,5,7,8,9,11,12,13,14,15,16,17,19,22,25,28,30,31,32,33,34,37,38,40,42,43,44,48,49,50,51,52,54,55,56,57,58,59,60,63,64,65,66,67,69,71,72,73,74,77,79,80,81,82,83,84,85,86,87,90,92},{0,1,2,4,5,8,9,10,12,13,14,15,16,19,20,21,25,26,30,31,33,35,38,39,42,43,44,46,48,50,51,54,55,57,58,59,60,62,63,64,68,70,71,72,75,77,78,79,80,81,82,83,85,86,89,90,92},{0,1,2,4,5,8,9,10,12,14,16,17,20,21,25,26,27,29,30,31,34,35,36,39,41,42,43,44,46,47,48,50,51,55,57,58,59,61,62,63,69,71,75,76,77,78,79,83,88,89,90,91},{0,1,3,5,6,7,8,9,10,11,12,13,14,15,16,17,19,20,21,22,25,26,27,28,30,31,32,33,34,35,36,37,38,39,42,43,44,45,46,48,49,50,52,53,54,55,56,58,59,60,61,63,64,65,66,67,68,69,70,72,73,74,75,76,78,79,80,81,82,83,85,86,87,88,89,90,91},{0,1,2,3,5,6,7,8,9,10,11,12,13,14,15,16,17,19,22,25,28,30,31,32,33,34,37,38,40,42,43,44,48,49,50,51,52,54,55,56,57,58,59,60,61,63,64,65,66,67,68,69,71,73,74,77,79,80,81,82,83,84,85,86,87,88,90,92},{0,2,3,5,7,8,9,11,12,13,14,15,16,17,19,22,25,28,30,31,32,33,34,37,38,40,42,43,44,49,50,51,52,54,55,56,57,58,59,60,63,64,65,66,67,68,71,72,74,79,80,81,82,83,84,85,86,87,90,92},{0,1,5,6,8,9,10,11,14,15,16,17,18,19,20,21,25,26,27,28,30,31,32,33,34,36,37,39,42,43,44,45,48,49,50,53,54,55,58,59,60,61,66,68,71,72,73,75,76,79,80,81,82,85,88,90,91},{0,1,4,6,8,9,10,14,16,17,20,21,25,26,27,29,30,31,34,35,36,39,41,42,43,45,46,47,48,50,53,55,58,59,61,62,69,70,71,74,76,77,78,88,89,90,91},{0,1,4,6,10,14,16,17,18,21,23,24,26,27,29,30,34,35,36,39,41,42,43,45,46,47,48,50,53,58,59,61,62,66,70,71,74,75,78,88,89,90,91},{2,5,8,9,12,13,14,15,20,25,30,31,33,35,38,39,43,44,48,50,51,55,57,58,59,62,63,64,68,69,70,72,75,78,79,80,81,83,85,86,89,90,92},{1,2,4,8,10,14,16,20,21,26,27,29,30,31,34,35,39,41,42,43,46,47,48,50,51,55,57,58,61,62,69,70,71,75,76,77,83,89,90,91},{0,1,2,3,5,6,7,8,9,10,11,12,13,14,15,16,17,19,20,21,22,25,26,27,28,30,31,32,33,34,36,37,38,39,40,42,43,44,48,49,50,51,52,54,55,56,57,58,59,60,61,63,64,65,66,67,68,69,70,71,72,73,74,77,80,81,82,83,84,85,86,87,88,90,91,92},{0,1,2,3,5,6,7,8,9,10,11,12,13,14,15,16,17,19,20,22,25,26,27,28,30,31,32,33,34,36,37,38,39,40,42,43,44,48,49,50,51,52,54,55,56,57,58,59,60,61,63,64,65,66,67,68,69,71,72,73,74,77,79,81,82,83,84,85,86,87,88,90,91,92},{0,1,2,3,5,6,7,8,9,10,11,12,13,14,15,16,17,19,20,22,25,26,27,28,30,31,32,33,34,37,38,39,40,42,43,44,48,49,50,51,52,54,55,56,57,58,59,60,61,63,64,65,66,67,68,69,71,72,73,74,77,79,80,82,83,84,85,86,87,88,90,91,92},{0,2,3,5,7,8,9,11,12,13,14,15,16,17,19,22,25,28,31,32,33,37,38,40,42,43,44,49,50,51,52,54,55,56,57,58,59,60,63,64,65,67,68,69,71,72,73,74,79,80,81,83,84,85,86,87,90,92},{2,5,7,8,9,12,13,14,15,19,20,25,28,30,31,33,35,38,40,42,43,44,48,49,50,51,52,54,55,56,57,58,59,60,62,63,64,65,68,69,70,71,72,73,77,78,79,80,81,82,85,86,87,89,90,92},{3,5,7,8,9,11,12,13,14,15,19,22,25,28,32,33,38,40,42,44,49,52,54,56,58,59,60,63,64,65,67,68,72,73,79,80,81,82,85,86,87,92},{0,2,3,5,7,8,9,11,12,13,14,15,16,17,19,20,22,25,28,30,31,32,33,37,38,40,42,43,44,48,49,50,51,52,54,55,56,57,58,59,60,63,64,65,66,67,68,69,71,72,73,74,77,79,80,81,82,83,84,86,87,90,92},{2,3,5,7,8,9,11,12,13,14,15,19,20,22,25,28,31,32,33,38,40,42,43,44,49,50,51,52,54,55,56,57,58,59,60,63,64,65,67,68,69,71,72,73,77,79,80,81,82,83,84,85,87,90,92},{0,2,3,5,7,8,9,11,12,13,14,15,17,19,22,25,28,32,33,37,38,40,42,43,44,49,50,51,52,54,56,57,58,59,60,63,64,65,67,68,71,72,73,79,80,81,82,83,84,85,86,90,92},{0,1,5,6,8,9,10,11,14,15,16,17,18,19,21,23,25,26,27,30,31,32,34,36,37,39,42,43,45,46,48,50,53,54,58,59,60,61,66,70,71,72,74,75,76,79,80,81,89,90,91},{0,1,2,4,6,8,9,10,14,16,20,21,26,27,29,30,31,34,35,36,39,41,42,43,45,46,47,48,50,55,57,58,59,61,62,69,70,71,75,76,77,78,83,88,90,91},{0,1,2,3,5,6,7,8,9,10,11,12,13,14,15,16,17,19,20,21,22,25,26,27,28,30,31,32,33,34,35,36,37,38,39,40,42,43,44,46,48,49,50,51,52,53,54,55,56,57,58,59,60,61,62,63,64,65,66,67,68,69,70,71,72,73,74,75,76,77,78,79,80,81,82,83,85,86,87,88,89,91,92},{0,1,6,8,9,10,14,15,16,17,18,19,21,23,24,25,26,27,30,31,32,34,35,36,37,39,41,42,43,45,46,47,48,50,53,54,58,59,61,62,66,70,71,74,75,76,78,79,80,81,88,89,90},{2,3,5,7,8,9,11,12,13,14,15,19,20,22,25,28,31,33,38,40,42,43,44,49,50,51,52,54,55,56,57,58,59,60,63,64,65,67,68,69,72,73,77,79,80,81,82,83,84,85,86,87,90}];
weights=[19,19,19,19,19,18,18,18,17,17,17,17,17,17,16,16,16,16,16,15,15,15,15,15,15,14,14,14,14,14,13,13,13,13,13,13,13,12,12,12,12,12,11,11,11,11,11,11,10,10,9,9,9,9,8,8,8,8,7,7,7,7,7,6,6,6,6,6,5,5,5,4,4,4,4,4,4,4,4,3,3,3,3,3,3,2,2,2,2,2,1,1,1];
